\ENCODING=ISO-8859-1
\Problem name: IloCplex

Minimize
 obj: 816 t(0)(2) + 272 r(0)(2) + 272 y(0)(2) + 882 t(0)(5) + 294 r(0)(5)
      + 294 y(0)(5) + 468 t(0)(10) + 156 r(0)(10) + 156 y(0)(10) + 468 t(1)(2)
      + 156 r(1)(2) + 156 y(1)(2) + 558 t(1)(7) + 186 r(1)(7) + 186 y(1)(7)
      + 816 t(1)(10) + 272 r(1)(10) + 272 y(1)(10) + 816 t(2)(0) + 468 t(2)(1)
      + 711 t(2)(9) + 237 r(2)(9) + 237 y(2)(9) + 624 t(3)(4) + 208 r(3)(4)
      + 208 y(3)(4) + 543 t(3)(6) + 181 r(3)(6) + 181 y(3)(6) + 624 t(3)(11)
      + 208 r(3)(11) + 208 y(3)(11) + 624 t(4)(3) + 750 t(4)(8) + 250 r(4)(8)
      + 250 y(4)(8) + 972 t(4)(10) + 324 r(4)(10) + 324 y(4)(10) + 882 t(5)(0)
      + 972 t(5)(8) + 324 r(5)(8) + 324 y(5)(8) + 750 t(5)(10) + 250 r(5)(10)
      + 250 y(5)(10) + 543 t(6)(3) + 495 t(6)(10) + 165 r(6)(10) + 165 y(6)(10)
      + 915 t(6)(11) + 305 r(6)(11) + 305 y(6)(11) + 558 t(7)(1) + 426 t(7)(9)
      + 142 r(7)(9) + 142 y(7)(9) + 585 t(7)(11) + 195 r(7)(11) + 195 y(7)(11)
      + 750 t(8)(4) + 972 t(8)(5) + 711 t(9)(2) + 426 t(9)(7) + 468 t(10)(0)
      + 816 t(10)(1) + 972 t(10)(4) + 750 t(10)(5) + 495 t(10)(6)
      + 624 t(11)(3) + 915 t(11)(6) + 585 t(11)(7)
Subject To
 u6(0):  - 2 z(0)(0) + y(0)(2) + y(0)(5) + y(0)(10)  = 0
 u6(1):  - 2 z(1)(1) + y(1)(2) + y(1)(7) + y(1)(10)  = 0
 u6(2):  y(0)(2) + y(1)(2) - 2 z(2)(2) + y(2)(9)  = 0
 u6(3):  - 2 z(3)(3) + y(3)(4) + y(3)(6) + y(3)(11)  = 0
 u6(4):  y(3)(4) - 2 z(4)(4) + y(4)(8) + y(4)(10)  = 0
 u6(5):  y(0)(5) - 2 z(5)(5) + y(5)(8) + y(5)(10)  = 0
 u6(6):  y(3)(6) - 2 z(6)(6) + y(6)(10) + y(6)(11)  = 0
 u6(7):  y(1)(7) - 2 z(7)(7) + y(7)(9) + y(7)(11)  = 0
 u6(8):  y(4)(8) + y(5)(8) - 2 z(8)(8)  = 0
 u6(9):  y(2)(9) + y(7)(9) - 2 z(9)(9)  = 0
 u6(10): y(0)(10) + y(1)(10) + y(4)(10) + y(5)(10) + y(6)(10) - 2 z(10)(10)
          = 0
 u6(11): y(3)(11) + y(6)(11) + y(7)(11) - 2 z(11)(11)  = 0
 u7(0):  2 t(0)(2) + r(0)(2) + 2 t(0)(5) + r(0)(5) + 2 t(0)(10) + r(0)(10)  = 2
 u7(1):  2 t(1)(2) + r(1)(2) + 2 t(1)(7) + r(1)(7) + 2 t(1)(10) + r(1)(10)  = 2
 u7(2):  r(0)(2) + r(1)(2) + 2 t(2)(0) + 2 t(2)(1) + 2 t(2)(9) + r(2)(9)  = 2
 u7(3):  2 t(3)(4) + r(3)(4) + 2 t(3)(6) + r(3)(6) + 2 t(3)(11) + r(3)(11)  = 2
 u7(4):  r(3)(4) + 2 t(4)(3) + 2 t(4)(8) + r(4)(8) + 2 t(4)(10) + r(4)(10)  = 2
 u7(5):  r(0)(5) + 2 t(5)(0) + 2 t(5)(8) + r(5)(8) + 2 t(5)(10) + r(5)(10)  = 2
 u7(6):  r(3)(6) + 2 t(6)(3) + 2 t(6)(10) + r(6)(10) + 2 t(6)(11) + r(6)(11)
          = 2
 u7(7):  r(1)(7) + 2 t(7)(1) + 2 t(7)(9) + r(7)(9) + 2 t(7)(11) + r(7)(11)  = 2
 u7(8):  r(4)(8) + r(5)(8) + 2 t(8)(4) + 2 t(8)(5)  = 2
 u7(9):  r(2)(9) + r(7)(9) + 2 t(9)(2) + 2 t(9)(7)  = 2
 u7(10): r(0)(10) + r(1)(10) + r(4)(10) + r(5)(10) + r(6)(10) + 2 t(10)(0)
         + 2 t(10)(1) + 2 t(10)(4) + 2 t(10)(5) + 2 t(10)(6)  = 2
 u7(11): r(3)(11) + r(6)(11) + r(7)(11) + 2 t(11)(3) + 2 t(11)(6) + 2 t(11)(7)
          = 2
 c25:    z(0)(0) - t(0)(0) <= 0
 c26:    z(0)(0) + t(0)(2) <= 1
 c27:    t(0)(2) + r(0)(2) - t(2)(2) <= 0
 c28:    - t(0)(0) + r(0)(2) + t(2)(0) <= 0
 c29:    t(0)(2) + y(0)(2) - t(2)(2) <= 0
 c30:    - t(0)(0) + y(0)(2) + t(2)(0) <= 0
 c31:    t(0)(0) + t(0)(2) <= 1
 c32:    t(0)(2) - t(2)(2) <= 0
 c33:    z(0)(0) + t(0)(5) <= 1
 c34:    t(0)(5) + r(0)(5) - t(5)(5) <= 0
 c35:    - t(0)(0) + r(0)(5) + t(5)(0) <= 0
 c36:    t(0)(5) + y(0)(5) - t(5)(5) <= 0
 c37:    - t(0)(0) + y(0)(5) + t(5)(0) <= 0
 c38:    t(0)(0) + t(0)(5) <= 1
 c39:    t(0)(5) - t(5)(5) <= 0
 c40:    z(0)(0) + t(0)(10) <= 1
 c41:    t(0)(10) + r(0)(10) - t(10)(10) <= 0
 c42:    - t(0)(0) + r(0)(10) + t(10)(0) <= 0
 c43:    t(0)(10) + y(0)(10) - t(10)(10) <= 0
 c44:    - t(0)(0) + y(0)(10) + t(10)(0) <= 0
 c45:    t(0)(0) + t(0)(10) <= 1
 c46:    t(0)(10) - t(10)(10) <= 0
 c47:    z(1)(1) - t(1)(1) <= 0
 c48:    z(1)(1) + t(1)(2) <= 1
 c49:    t(1)(2) + r(1)(2) - t(2)(2) <= 0
 c50:    - t(1)(1) + r(1)(2) + t(2)(1) <= 0
 c51:    t(1)(2) + y(1)(2) - t(2)(2) <= 0
 c52:    - t(1)(1) + y(1)(2) + t(2)(1) <= 0
 c53:    t(1)(1) + t(1)(2) <= 1
 c54:    t(1)(2) - t(2)(2) <= 0
 c55:    z(1)(1) + t(1)(7) <= 1
 c56:    t(1)(7) + r(1)(7) - t(7)(7) <= 0
 c57:    - t(1)(1) + r(1)(7) + t(7)(1) <= 0
 c58:    t(1)(7) + y(1)(7) - t(7)(7) <= 0
 c59:    - t(1)(1) + y(1)(7) + t(7)(1) <= 0
 c60:    t(1)(1) + t(1)(7) <= 1
 c61:    t(1)(7) - t(7)(7) <= 0
 c62:    z(1)(1) + t(1)(10) <= 1
 c63:    t(1)(10) + r(1)(10) - t(10)(10) <= 0
 c64:    - t(1)(1) + r(1)(10) + t(10)(1) <= 0
 c65:    t(1)(10) + y(1)(10) - t(10)(10) <= 0
 c66:    - t(1)(1) + y(1)(10) + t(10)(1) <= 0
 c67:    t(1)(1) + t(1)(10) <= 1
 c68:    t(1)(10) - t(10)(10) <= 0
 c69:    z(2)(2) - t(2)(2) <= 0
 c70:    z(2)(2) + t(2)(0) <= 1
 c71:    t(2)(0) + t(2)(2) <= 1
 c72:    - t(0)(0) + t(2)(0) <= 0
 c73:    z(2)(2) + t(2)(1) <= 1
 c74:    t(2)(1) + t(2)(2) <= 1
 c75:    - t(1)(1) + t(2)(1) <= 0
 c76:    z(2)(2) + t(2)(9) <= 1
 c77:    t(2)(9) + r(2)(9) - t(9)(9) <= 0
 c78:    - t(2)(2) + r(2)(9) + t(9)(2) <= 0
 c79:    t(2)(9) + y(2)(9) - t(9)(9) <= 0
 c80:    - t(2)(2) + y(2)(9) + t(9)(2) <= 0
 c81:    t(2)(2) + t(2)(9) <= 1
 c82:    t(2)(9) - t(9)(9) <= 0
 c83:    z(3)(3) - t(3)(3) <= 0
 c84:    z(3)(3) + t(3)(4) <= 1
 c85:    t(3)(4) + r(3)(4) - t(4)(4) <= 0
 c86:    - t(3)(3) + r(3)(4) + t(4)(3) <= 0
 c87:    t(3)(4) + y(3)(4) - t(4)(4) <= 0
 c88:    - t(3)(3) + y(3)(4) + t(4)(3) <= 0
 c89:    t(3)(3) + t(3)(4) <= 1
 c90:    t(3)(4) - t(4)(4) <= 0
 c91:    z(3)(3) + t(3)(6) <= 1
 c92:    t(3)(6) + r(3)(6) - t(6)(6) <= 0
 c93:    - t(3)(3) + r(3)(6) + t(6)(3) <= 0
 c94:    t(3)(6) + y(3)(6) - t(6)(6) <= 0
 c95:    - t(3)(3) + y(3)(6) + t(6)(3) <= 0
 c96:    t(3)(3) + t(3)(6) <= 1
 c97:    t(3)(6) - t(6)(6) <= 0
 c98:    z(3)(3) + t(3)(11) <= 1
 c99:    t(3)(11) + r(3)(11) - t(11)(11) <= 0
 c100:   - t(3)(3) + r(3)(11) + t(11)(3) <= 0
 c101:   t(3)(11) + y(3)(11) - t(11)(11) <= 0
 c102:   - t(3)(3) + y(3)(11) + t(11)(3) <= 0
 c103:   t(3)(3) + t(3)(11) <= 1
 c104:   t(3)(11) - t(11)(11) <= 0
 c105:   z(4)(4) - t(4)(4) <= 0
 c106:   z(4)(4) + t(4)(3) <= 1
 c107:   t(4)(3) + t(4)(4) <= 1
 c108:   - t(3)(3) + t(4)(3) <= 0
 c109:   z(4)(4) + t(4)(8) <= 1
 c110:   t(4)(8) + r(4)(8) - t(8)(8) <= 0
 c111:   - t(4)(4) + r(4)(8) + t(8)(4) <= 0
 c112:   t(4)(8) + y(4)(8) - t(8)(8) <= 0
 c113:   - t(4)(4) + y(4)(8) + t(8)(4) <= 0
 c114:   t(4)(4) + t(4)(8) <= 1
 c115:   t(4)(8) - t(8)(8) <= 0
 c116:   z(4)(4) + t(4)(10) <= 1
 c117:   t(4)(10) + r(4)(10) - t(10)(10) <= 0
 c118:   - t(4)(4) + r(4)(10) + t(10)(4) <= 0
 c119:   t(4)(10) + y(4)(10) - t(10)(10) <= 0
 c120:   - t(4)(4) + y(4)(10) + t(10)(4) <= 0
 c121:   t(4)(4) + t(4)(10) <= 1
 c122:   t(4)(10) - t(10)(10) <= 0
 c123:   z(5)(5) - t(5)(5) <= 0
 c124:   z(5)(5) + t(5)(0) <= 1
 c125:   t(5)(0) + t(5)(5) <= 1
 c126:   - t(0)(0) + t(5)(0) <= 0
 c127:   z(5)(5) + t(5)(8) <= 1
 c128:   t(5)(8) + r(5)(8) - t(8)(8) <= 0
 c129:   - t(5)(5) + r(5)(8) + t(8)(5) <= 0
 c130:   t(5)(8) + y(5)(8) - t(8)(8) <= 0
 c131:   - t(5)(5) + y(5)(8) + t(8)(5) <= 0
 c132:   t(5)(5) + t(5)(8) <= 1
 c133:   t(5)(8) - t(8)(8) <= 0
 c134:   z(5)(5) + t(5)(10) <= 1
 c135:   t(5)(10) + r(5)(10) - t(10)(10) <= 0
 c136:   - t(5)(5) + r(5)(10) + t(10)(5) <= 0
 c137:   t(5)(10) + y(5)(10) - t(10)(10) <= 0
 c138:   - t(5)(5) + y(5)(10) + t(10)(5) <= 0
 c139:   t(5)(5) + t(5)(10) <= 1
 c140:   t(5)(10) - t(10)(10) <= 0
 c141:   z(6)(6) - t(6)(6) <= 0
 c142:   z(6)(6) + t(6)(3) <= 1
 c143:   t(6)(3) + t(6)(6) <= 1
 c144:   - t(3)(3) + t(6)(3) <= 0
 c145:   z(6)(6) + t(6)(10) <= 1
 c146:   t(6)(10) + r(6)(10) - t(10)(10) <= 0
 c147:   - t(6)(6) + r(6)(10) + t(10)(6) <= 0
 c148:   t(6)(10) + y(6)(10) - t(10)(10) <= 0
 c149:   - t(6)(6) + y(6)(10) + t(10)(6) <= 0
 c150:   t(6)(6) + t(6)(10) <= 1
 c151:   t(6)(10) - t(10)(10) <= 0
 c152:   z(6)(6) + t(6)(11) <= 1
 c153:   t(6)(11) + r(6)(11) - t(11)(11) <= 0
 c154:   - t(6)(6) + r(6)(11) + t(11)(6) <= 0
 c155:   t(6)(11) + y(6)(11) - t(11)(11) <= 0
 c156:   - t(6)(6) + y(6)(11) + t(11)(6) <= 0
 c157:   t(6)(6) + t(6)(11) <= 1
 c158:   t(6)(11) - t(11)(11) <= 0
 c159:   z(7)(7) - t(7)(7) <= 0
 c160:   z(7)(7) + t(7)(1) <= 1
 c161:   t(7)(1) + t(7)(7) <= 1
 c162:   - t(1)(1) + t(7)(1) <= 0
 c163:   z(7)(7) + t(7)(9) <= 1
 c164:   t(7)(9) + r(7)(9) - t(9)(9) <= 0
 c165:   - t(7)(7) + r(7)(9) + t(9)(7) <= 0
 c166:   t(7)(9) + y(7)(9) - t(9)(9) <= 0
 c167:   - t(7)(7) + y(7)(9) + t(9)(7) <= 0
 c168:   t(7)(7) + t(7)(9) <= 1
 c169:   t(7)(9) - t(9)(9) <= 0
 c170:   z(7)(7) + t(7)(11) <= 1
 c171:   t(7)(11) + r(7)(11) - t(11)(11) <= 0
 c172:   - t(7)(7) + r(7)(11) + t(11)(7) <= 0
 c173:   t(7)(11) + y(7)(11) - t(11)(11) <= 0
 c174:   - t(7)(7) + y(7)(11) + t(11)(7) <= 0
 c175:   t(7)(7) + t(7)(11) <= 1
 c176:   t(7)(11) - t(11)(11) <= 0
 c177:   z(8)(8) - t(8)(8) <= 0
 c178:   z(8)(8) + t(8)(4) <= 1
 c179:   t(8)(4) + t(8)(8) <= 1
 c180:   - t(4)(4) + t(8)(4) <= 0
 c181:   z(8)(8) + t(8)(5) <= 1
 c182:   t(8)(5) + t(8)(8) <= 1
 c183:   - t(5)(5) + t(8)(5) <= 0
 c184:   z(9)(9) - t(9)(9) <= 0
 c185:   z(9)(9) + t(9)(2) <= 1
 c186:   t(9)(2) + t(9)(9) <= 1
 c187:   - t(2)(2) + t(9)(2) <= 0
 c188:   z(9)(9) + t(9)(7) <= 1
 c189:   t(9)(7) + t(9)(9) <= 1
 c190:   - t(7)(7) + t(9)(7) <= 0
 c191:   z(10)(10) - t(10)(10) <= 0
 c192:   z(10)(10) + t(10)(0) <= 1
 c193:   t(10)(0) + t(10)(10) <= 1
 c194:   - t(0)(0) + t(10)(0) <= 0
 c195:   z(10)(10) + t(10)(1) <= 1
 c196:   t(10)(1) + t(10)(10) <= 1
 c197:   - t(1)(1) + t(10)(1) <= 0
 c198:   z(10)(10) + t(10)(4) <= 1
 c199:   t(10)(4) + t(10)(10) <= 1
 c200:   - t(4)(4) + t(10)(4) <= 0
 c201:   z(10)(10) + t(10)(5) <= 1
 c202:   t(10)(5) + t(10)(10) <= 1
 c203:   - t(5)(5) + t(10)(5) <= 0
 c204:   z(10)(10) + t(10)(6) <= 1
 c205:   t(10)(6) + t(10)(10) <= 1
 c206:   - t(6)(6) + t(10)(6) <= 0
 c207:   z(11)(11) - t(11)(11) <= 0
 c208:   z(11)(11) + t(11)(3) <= 1
 c209:   t(11)(3) + t(11)(11) <= 1
 c210:   - t(3)(3) + t(11)(3) <= 0
 c211:   z(11)(11) + t(11)(6) <= 1
 c212:   t(11)(6) + t(11)(11) <= 1
 c213:   - t(6)(6) + t(11)(6) <= 0
 c214:   z(11)(11) + t(11)(7) <= 1
 c215:   t(11)(7) + t(11)(11) <= 1
 c216:   - t(7)(7) + t(11)(7) <= 0
 u9:     z(0)(0) + z(1)(1) + z(2)(2) + z(3)(3) + z(4)(4) + z(5)(5) + z(6)(6)
         + z(7)(7) + z(8)(8) + z(9)(9) + z(10)(10) + z(11)(11) >= 3
 c218:   y(0)(2) + y(0)(5) + y(0)(10) + y(1)(2) + y(1)(7) + y(1)(10) + y(2)(9)
         + y(3)(4) + y(3)(6) + y(3)(11) + y(4)(8) + y(4)(10) + y(5)(8)
         + y(5)(10) + y(6)(10) + y(6)(11) + y(7)(9) + y(7)(11) >= 3
 c219:   t(0)(0) + t(0)(2) + t(0)(5) + t(0)(10)  = 1
 c220:   t(1)(1) + t(1)(2) + t(1)(7) + t(1)(10)  = 1
 c221:   t(2)(0) + t(2)(1) + t(2)(2) + t(2)(9)  = 1
 c222:   t(3)(3) + t(3)(4) + t(3)(6) + t(3)(11)  = 1
 c223:   t(4)(3) + t(4)(4) + t(4)(8) + t(4)(10)  = 1
 c224:   t(5)(0) + t(5)(5) + t(5)(8) + t(5)(10)  = 1
 c225:   t(6)(3) + t(6)(6) + t(6)(10) + t(6)(11)  = 1
 c226:   t(7)(1) + t(7)(7) + t(7)(9) + t(7)(11)  = 1
 c227:   t(8)(4) + t(8)(5) + t(8)(8)  = 1
 c228:   t(9)(2) + t(9)(7) + t(9)(9)  = 1
 c229:   t(10)(0) + t(10)(1) + t(10)(4) + t(10)(5) + t(10)(6) + t(10)(10)  = 1
 c230:   t(11)(3) + t(11)(6) + t(11)(7) + t(11)(11)  = 1
Bounds
 0 <= z(0)(0) <= 1
 0 <= t(0)(0) <= 1
 0 <= t(0)(2) <= 1
 0 <= r(0)(2) <= 1
 0 <= y(0)(2) <= 1
 0 <= t(0)(5) <= 1
 0 <= r(0)(5) <= 1
 0 <= y(0)(5) <= 1
 0 <= t(0)(10) <= 1
 0 <= r(0)(10) <= 1
 0 <= y(0)(10) <= 1
 0 <= z(1)(1) <= 1
 0 <= t(1)(1) <= 1
 0 <= t(1)(2) <= 1
 0 <= r(1)(2) <= 1
 0 <= y(1)(2) <= 1
 0 <= t(1)(7) <= 1
 0 <= r(1)(7) <= 1
 0 <= y(1)(7) <= 1
 0 <= t(1)(10) <= 1
 0 <= r(1)(10) <= 1
 0 <= y(1)(10) <= 1
 0 <= z(2)(2) <= 1
 0 <= t(2)(0) <= 1
 0 <= t(2)(1) <= 1
 0 <= t(2)(2) <= 1
 0 <= t(2)(9) <= 1
 0 <= r(2)(9) <= 1
 0 <= y(2)(9) <= 1
 0 <= z(3)(3) <= 1
 0 <= t(3)(3) <= 1
 0 <= t(3)(4) <= 1
 0 <= r(3)(4) <= 1
 0 <= y(3)(4) <= 1
 0 <= t(3)(6) <= 1
 0 <= r(3)(6) <= 1
 0 <= y(3)(6) <= 1
 0 <= t(3)(11) <= 1
 0 <= r(3)(11) <= 1
 0 <= y(3)(11) <= 1
 0 <= z(4)(4) <= 1
 0 <= t(4)(3) <= 1
 0 <= t(4)(4) <= 1
 0 <= t(4)(8) <= 1
 0 <= r(4)(8) <= 1
 0 <= y(4)(8) <= 1
 0 <= t(4)(10) <= 1
 0 <= r(4)(10) <= 1
 0 <= y(4)(10) <= 1
 0 <= z(5)(5) <= 1
 0 <= t(5)(0) <= 1
 0 <= t(5)(5) <= 1
 0 <= t(5)(8) <= 1
 0 <= r(5)(8) <= 1
 0 <= y(5)(8) <= 1
 0 <= t(5)(10) <= 1
 0 <= r(5)(10) <= 1
 0 <= y(5)(10) <= 1
 0 <= z(6)(6) <= 1
 0 <= t(6)(3) <= 1
 0 <= t(6)(6) <= 1
 0 <= t(6)(10) <= 1
 0 <= r(6)(10) <= 1
 0 <= y(6)(10) <= 1
 0 <= t(6)(11) <= 1
 0 <= r(6)(11) <= 1
 0 <= y(6)(11) <= 1
 0 <= z(7)(7) <= 1
 0 <= t(7)(1) <= 1
 0 <= t(7)(7) <= 1
 0 <= t(7)(9) <= 1
 0 <= r(7)(9) <= 1
 0 <= y(7)(9) <= 1
 0 <= t(7)(11) <= 1
 0 <= r(7)(11) <= 1
 0 <= y(7)(11) <= 1
 0 <= z(8)(8) <= 1
 0 <= t(8)(4) <= 1
 0 <= t(8)(5) <= 1
 0 <= t(8)(8) <= 1
 0 <= z(9)(9) <= 1
 0 <= t(9)(2) <= 1
 0 <= t(9)(7) <= 1
 0 <= t(9)(9) <= 1
 0 <= z(10)(10) <= 1
 0 <= t(10)(0) <= 1
 0 <= t(10)(1) <= 1
 0 <= t(10)(4) <= 1
 0 <= t(10)(5) <= 1
 0 <= t(10)(6) <= 1
 0 <= t(10)(10) <= 1
 0 <= z(11)(11) <= 1
 0 <= t(11)(3) <= 1
 0 <= t(11)(6) <= 1
 0 <= t(11)(7) <= 1
 0 <= t(11)(11) <= 1
Binaries
 z(0)(0)  t(0)(2)  r(0)(2)  y(0)(2)  t(0)(5)  r(0)(5)  y(0)(5)  t(0)(10) 
 r(0)(10)  y(0)(10)  z(1)(1)  t(1)(2)  r(1)(2)  y(1)(2)  t(1)(7)  r(1)(7) 
 y(1)(7)  t(1)(10)  r(1)(10)  y(1)(10)  z(2)(2)  t(2)(0)  t(2)(1)  t(2)(9) 
 r(2)(9)  y(2)(9)  z(3)(3)  t(3)(4)  r(3)(4)  y(3)(4)  t(3)(6)  r(3)(6) 
 y(3)(6)  t(3)(11)  r(3)(11)  y(3)(11)  z(4)(4)  t(4)(3)  t(4)(8)  r(4)(8) 
 y(4)(8)  t(4)(10)  r(4)(10)  y(4)(10)  z(5)(5)  t(5)(0)  t(5)(8)  r(5)(8) 
 y(5)(8)  t(5)(10)  r(5)(10)  y(5)(10)  z(6)(6)  t(6)(3)  t(6)(10)  r(6)(10) 
 y(6)(10)  t(6)(11)  r(6)(11)  y(6)(11)  z(7)(7)  t(7)(1)  t(7)(9)  r(7)(9) 
 y(7)(9)  t(7)(11)  r(7)(11)  y(7)(11)  z(8)(8)  t(8)(4)  t(8)(5)  z(9)(9) 
 t(9)(2)  t(9)(7)  z(10)(10)  t(10)(0)  t(10)(1)  t(10)(4)  t(10)(5)  t(10)(6) 
 z(11)(11)  t(11)(3)  t(11)(6)  t(11)(7) 
End
